c "278167.clq"
p edge 120 464
e 1 5
e 1 6
e 1 7
e 1 8
e 1 10
e 1 12
e 1 13
e 1 18
e 1 21
e 1 22
e 1 25
e 1 43
e 1 44
e 1 45
e 1 46
e 1 52
e 1 69
e 1 79
e 1 85
e 1 120
e 2 5
e 2 6
e 2 8
e 2 11
e 2 17
e 2 19
e 2 29
e 2 36
e 2 41
e 2 66
e 2 71
e 3 5
e 3 6
e 3 7
e 3 11
e 3 12
e 3 13
e 3 22
e 3 31
e 3 36
e 3 42
e 3 84
e 3 90
e 3 93
e 3 97
e 3 108
e 4 5
e 4 9
e 4 31
e 4 37
e 4 38
e 4 42
e 4 43
e 4 44
e 4 64
e 4 70
e 5 6
e 5 7
e 5 8
e 5 10
e 5 14
e 5 15
e 5 16
e 5 17
e 5 22
e 5 23
e 5 25
e 5 27
e 5 28
e 5 29
e 5 30
e 5 32
e 5 34
e 5 36
e 5 48
e 5 60
e 5 75
e 5 76
e 5 77
e 5 78
e 5 82
e 5 87
e 5 88
e 5 93
e 5 99
e 5 108
e 5 115
e 5 118
e 6 7
e 6 9
e 6 19
e 6 20
e 6 21
e 6 24
e 6 33
e 6 36
e 6 39
e 6 40
e 6 41
e 6 51
e 6 61
e 6 72
e 6 80
e 6 82
e 6 99
e 6 112
e 7 8
e 7 9
e 7 11
e 7 12
e 7 13
e 7 14
e 7 15
e 7 16
e 7 19
e 7 20
e 7 26
e 7 30
e 7 51
e 7 56
e 7 74
e 7 78
e 7 82
e 7 95
e 7 114
e 7 116
e 7 119
e 8 9
e 8 10
e 8 11
e 8 13
e 8 14
e 8 17
e 8 18
e 8 19
e 8 24
e 8 27
e 8 28
e 8 29
e 8 30
e 8 32
e 8 33
e 8 37
e 8 40
e 8 46
e 8 51
e 8 55
e 8 63
e 8 64
e 8 83
e 8 91
e 8 101
e 8 112
e 9 10
e 9 14
e 9 15
e 9 16
e 9 25
e 9 26
e 9 35
e 9 39
e 9 40
e 9 45
e 9 58
e 9 63
e 9 64
e 9 68
e 9 96
e 9 104
e 9 106
e 9 107
e 10 12
e 10 21
e 10 23
e 10 24
e 10 32
e 10 35
e 10 42
e 10 54
e 10 55
e 10 70
e 10 76
e 10 81
e 10 87
e 10 102
e 10 118
e 11 15
e 11 16
e 11 31
e 11 34
e 11 45
e 11 55
e 11 59
e 11 62
e 11 74
e 11 80
e 11 94
e 12 17
e 12 18
e 12 21
e 12 24
e 12 34
e 12 43
e 12 52
e 12 53
e 12 57
e 12 58
e 12 75
e 12 88
e 12 95
e 12 100
e 12 101
e 12 102
e 12 108
e 12 117
e 13 35
e 13 55
e 13 67
e 13 83
e 13 85
e 14 35
e 14 48
e 14 62
e 14 72
e 14 111
e 14 113
e 14 114
e 15 20
e 15 25
e 15 41
e 15 60
e 15 74
e 15 99
e 15 103
e 16 18
e 16 54
e 16 89
e 16 107
e 16 116
e 16 117
e 17 65
e 17 102
e 17 114
e 18 20
e 18 26
e 18 32
e 18 110
e 19 77
e 20 23
e 20 26
e 20 33
e 20 37
e 20 38
e 20 46
e 21 22
e 21 23
e 21 47
e 21 52
e 21 57
e 21 60
e 21 66
e 21 71
e 22 31
e 22 33
e 22 38
e 22 50
e 22 65
e 22 68
e 22 79
e 22 112
e 22 115
e 23 27
e 23 41
e 23 53
e 23 89
e 23 94
e 23 111
e 24 28
e 24 38
e 24 44
e 24 99
e 24 105
e 25 27
e 25 28
e 25 29
e 25 30
e 25 40
e 25 49
e 25 63
e 25 87
e 25 91
e 25 92
e 25 106
e 26 50
e 26 53
e 26 85
e 26 98
e 26 116
e 27 75
e 27 76
e 27 118
e 28 47
e 28 80
e 28 86
e 28 119
e 29 37
e 29 58
e 29 113
e 30 34
e 30 66
e 30 84
e 31 56
e 31 58
e 31 73
e 31 93
e 31 120
e 32 39
e 32 54
e 32 62
e 32 92
e 32 95
e 32 101
e 32 106
e 33 46
e 33 50
e 33 51
e 33 52
e 33 61
e 33 66
e 33 68
e 33 94
e 33 110
e 34 48
e 34 69
e 34 115
e 35 56
e 35 70
e 35 85
e 35 90
e 35 97
e 36 39
e 36 57
e 36 63
e 36 71
e 36 81
e 36 114
e 37 49
e 37 50
e 37 53
e 37 83
e 37 90
e 37 93
e 38 42
e 38 43
e 38 44
e 38 45
e 38 47
e 38 76
e 38 77
e 38 109
e 40 57
e 40 84
e 41 61
e 41 78
e 41 96
e 41 111
e 42 54
e 42 59
e 42 80
e 42 102
e 42 105
e 43 47
e 44 56
e 44 83
e 44 105
e 45 49
e 45 67
e 45 79
e 45 89
e 45 100
e 46 48
e 46 100
e 46 109
e 47 67
e 47 71
e 48 49
e 49 90
e 50 62
e 50 97
e 51 59
e 52 69
e 52 72
e 52 86
e 52 103
e 53 77
e 54 60
e 54 115
e 55 111
e 55 112
e 56 59
e 56 65
e 56 73
e 56 86
e 57 74
e 58 64
e 58 81
e 58 88
e 59 65
e 59 67
e 59 98
e 60 61
e 60 73
e 60 78
e 60 95
e 61 72
e 61 75
e 62 87
e 62 91
e 62 96
e 63 70
e 64 104
e 65 68
e 65 117
e 66 69
e 66 73
e 67 109
e 67 116
e 71 79
e 71 96
e 71 108
e 71 120
e 72 109
e 73 94
e 74 81
e 74 84
e 76 100
e 76 107
e 78 88
e 78 103
e 78 118
e 79 92
e 81 82
e 81 120
e 82 86
e 82 91
e 82 92
e 83 101
e 83 105
e 83 107
e 85 119
e 87 89
e 87 113
e 88 113
e 89 98
e 91 106
e 92 97
e 92 110
e 94 104
e 95 110
e 96 98
e 98 103
e 102 104
e 103 117
e 106 119
